&GLOBAL
   PRINT_LEVEL MEDIUM
   PROJECT_NAME "Fe2O3-geo"
   RUN_TYPE CELL_OPT
 &END GLOBAL
 &MOTION
   &GEO_OPT
     STEP_START_VAL 4
   &END GEO_OPT
   &CELL_OPT
     OPTIMIZER BFGS
     MAX_ITER 400
     MAX_DR  3.0000000000000001E-003
     MAX_FORCE  4.4999999999999999E-004
     RMS_DR  1.5000000000000000E-003
     RMS_FORCE  2.9999999999999997E-004
     STEP_START_VAL 19
     KEEP_SPACE_GROUP F
     TYPE DIRECT_CELL_OPT
     EXTERNAL_PRESSURE  1.0132500000000000E+000
     KEEP_ANGLES F
     KEEP_SYMMETRY F
     CONSTRAINT NONE
     PRESSURE_TOLERANCE  1.0000000000000000E+002
     &BFGS
       TRUST_RADIUS  2.0000000000000001E-001
     &END BFGS
   &END CELL_OPT
   &PRINT
     &TRAJECTORY SILENT
       FORMAT PDB
     &END TRAJECTORY
     &RESTART SILENT
       BACKUP_COPIES 0
     &END RESTART
     &RESTART_HISTORY OFF
     &END RESTART_HISTORY
   &END PRINT
 &END MOTION
 &FORCE_EVAL
   METHOD QS
   STRESS_TENSOR ANALYTICAL
   &DFT
     BASIS_SET_FILE_NAME BASIS_MOLOPT
     POTENTIAL_FILE_NAME POTENTIAL
     UKS T
     MULTIPLICITY 1
     CHARGE 0
     &SCF
       MAX_SCF 128
       EPS_SCF  9.9999999999999995E-007
       IGNORE_CONVERGENCE_FAILURE T
       &DIAGONALIZATION T
         ALGORITHM STANDARD
       &END DIAGONALIZATION
       &MIXING T
         METHOD BROYDEN_MIXING
         ALPHA  1.0000000000000001E-001
         NBUFFER 16
       &END MIXING
       &PRINT
         &RESTART SILENT
           BACKUP_COPIES 0
         &END RESTART
       &END PRINT
     &END SCF
     &QS
       EPS_DEFAULT  9.9999999999999998E-013
       EXTRAPOLATION USE_PREV_P
     &END QS
     &MGRID
       CUTOFF  7.5000000000000000E+002
       REL_CUTOFF  5.0000000000000000E+001
     &END MGRID
     &XC
       DENSITY_CUTOFF  1.0000000000000000E-010
       GRADIENT_CUTOFF  1.0000000000000000E-010
       TAU_CUTOFF  1.0000000000000000E-010
       &XC_FUNCTIONAL NO_SHORTCUT
         &PBE T
           PARAMETRIZATION PBESOL
         &END PBE
       &END XC_FUNCTIONAL
     &END XC
     &POISSON
       POISSON_SOLVER PERIODIC
       PERIODIC XYZ
     &END POISSON
     &KPOINTS
       SCHEME "MONKHORST-PACK" "4" "4" "2"
     &END KPOINTS
   &END DFT
   &SUBSYS
     &CELL
       A  4.9566151580632321E+000  0.0000000000000000E+000  0.0000000000000000E+000
       B -2.4778168787183978E+000  4.2928156484010564E+000  0.0000000000000000E+000
       C  1.2226384327400548E-003 -7.2696188566629956E-004  1.3675809322035089E+001
       PERIODIC XYZ
       MULTIPLE_UNIT_CELL 1 1 1
     &END CELL
     &COORD
       Fe  3.5855722319597951E-004 -4.4196267417804184E-006  4.8620550985618092E+000
       O  1.5281029132300001E+000 -1.1825799217180597E-003  3.4156687624563875E+000
       Fe  2.4792395588114386E+000  1.4306901951163378E+000  9.4206581401274221E+000
       O  4.0069819451111295E+000  1.4295165188175141E+000  7.9742724440326729E+000
       Fe  2.7821863989601936E-004  2.8621168878859966E+000  3.0345206012942211E-001
       O  1.5292440500332023E+000  2.8602148715889895E+000  1.2532875574285148E+001
       Fe_1  7.9072073625238617E-004 -6.9507339162865154E-004  1.1699579000506354E+001
       O  7.6564949449665298E-001  1.3223379216493252E+000  1.0259776700139987E+001
       Fe_1  2.4784473196612096E+000  1.4307252470699754E+000  2.5823728344666175E+000
       O  3.2433028182929267E+000  2.7537621716600871E+000  1.1425698953353074E+000
       Fe_1  7.0872077248487720E-004  2.8614252915981506E+000  7.1409759328981881E+000
       O  7.6556518933752327E-001  4.1844608392178984E+000  5.7011729558502893E+000
       Fe_1  4.3350505995916544E-004 -3.2832696817161691E-005  1.9762302818612723E+000
       O -7.6300436606066813E-001  1.3232641000986198E+000  3.4163943989534413E+000
       Fe_1  2.4793100642370356E+000  1.4306672118389039E+000  6.5348333802300971E+000
       O  1.7158743442801945E+000  2.7539615790155745E+000  7.9749969551835536E+000
       Fe_1  1.5741435214612484E-003  2.8613605703702505E+000  1.1093436536217601E+001
       O -7.6186331874492197E-001  4.1846583772292076E+000  1.2533600615852206E+001
       O  3.4297359723586247E+000  4.5062514529835296E-004  1.0260139962234238E+001
       O  9.5077543882616011E-001  1.4318759398276528E+000  1.1429337704750142E+000
       O -1.5269606873265262E+000  2.8625750385970483E+000  5.7015374521067850E+000
       O  1.7143753157955348E+000  2.9697472676719570E+000  3.4160332590944962E+000
       O  1.7144545655335550E+000  1.0763028685954605E-001  7.9746363195356151E+000
       O -7.6328463030529314E-001  1.5383275749398904E+000  1.2533238836766783E+001
       O  3.2430264624656817E+000  2.9688227677392032E+000  1.0259414920953468E+001
       O  3.2418830397455323E+000  1.0743087942064240E-001  1.1422092595885431E+000
       O  7.6414659200045776E-001  1.5381283583424079E+000  5.7008118158868033E+000
       Fe  4.9574791652380652E+000 -7.2442908932084582E-004  8.8137541545609306E+000
       Fe  2.4797404635072269E+000  1.4299753017792216E+000  1.3372357396683148E+001
       Fe  7.8366860050623518E-004  2.8613968784078661E+000  4.2551511162005182E+000
     &END COORD
     &KIND "O"
       BASIS_SET "DZVP-MOLOPT-SR-GTH-q6"
       ELEMENT "O"
       POTENTIAL "GTH-PBE"
       &POTENTIAL
 2 4
 2.4455430000000000E-001 2 -1.6667214800000000E+001  2.4873113199999999E+000
 2
 2.2095592000000000E-001 1  1.8337458110000000E+001
 2.1133246999999999E-001 0
       &END POTENTIAL
       &BS T
         &ALPHA
           NEL 2
           L 1
           N 2
         &END ALPHA
         &BETA
           NEL 2
           L 1
           N 2
         &END BETA
       &END BS
     &END KIND
     &KIND "Fe"
       BASIS_SET "DZVP-MOLOPT-SR-GTH-q16"
       ELEMENT "Fe"
       POTENTIAL "GTH-PBE"
       &POTENTIAL
 4 6 6
 3.5999999999999999E-001 2  6.7567891600000003E+000 -2.2883250999999999E-001
 3
 2.7826303000000002E-001 2  6.2950569999999995E-001  7.9131324200000002E+000
 -1.0215810019999999E+001
 2.5138337999999999E-001 2 -7.9321329299999999E+000  7.6970788800000003E+000
 -9.1073065399999997E+000
 2.2285578000000000E-001 1 -1.2385799370000001E+001
       &END POTENTIAL
       &BS T
         &ALPHA
           NEL -6 -2
           L 2 0
           N 3 4
         &END ALPHA
         &BETA
           NEL 4 -2
           L 2 0
           N 3 4
         &END BETA
       &END BS
     &END KIND
     &KIND "Fe_1"
       BASIS_SET "DZVP-MOLOPT-SR-GTH-q16"
       ELEMENT "Fe"
       POTENTIAL "GTH-PBE"
       &POTENTIAL
 4 6 6
 3.5999999999999999E-001 2  6.7567891600000003E+000 -2.2883250999999999E-001
 3
 2.7826303000000002E-001 2  6.2950569999999995E-001  7.9131324200000002E+000
 -1.0215810019999999E+001
 2.5138337999999999E-001 2 -7.9321329299999999E+000  7.6970788800000003E+000
 -9.1073065399999997E+000
 2.2285578000000000E-001 1 -1.2385799370000001E+001
       &END POTENTIAL
       &BS T
         &ALPHA
           NEL 4 -2
           L 2 0
           N 3 4
         &END ALPHA
         &BETA
           NEL -6 -2
           L 2 0
           N 3 4
         &END BETA
       &END BS
     &END KIND
     &TOPOLOGY
       NUMBER_OF_ATOMS 30
       MULTIPLE_UNIT_CELL 1 1 1
     &END TOPOLOGY
   &END SUBSYS
   &PRINT
     &STRESS_TENSOR ON
     &END STRESS_TENSOR
   &END PRINT
 &END FORCE_EVAL
