this is a fortan example
&GLOBAL
  PROJECT Fe2O3-FGO-O2-geo540
  PRINT_LEVEL LOW
  RUN_TYPE GEO_OPT
  EXTENDED_FFT_LENGTHS
&END GLOBAL

&FORCE_EVAL
  METHOD Quickstep
  &SUBSYS
    &CELL
      A    15.08100000     0.00000000     0.00000000
      B     7.54050000    13.06052911     0.00000000
      C     0.00000000     0.00000000    39.61000000
      PERIODIC XY #Direction(s) of applied PBC (geometry aspect)
    &END CELL
    &COORD
    &END COORD
    &KIND C
      ELEMENT C
      BASIS_SET DZVP-MOLOPT-SR-GTH-q4
      POTENTIAL GTH-PBE
      #&DFT_PLUS_U
      #  L 1 #Quantum number of angular momentum the atomic orbitals to +U. 0=s, 1=p, 2=d, 3=f
      #  U_MINUS_J [eV] 2.0 #Effective on-site Coulomb interaction parameter U(eff) = U - J
      #&END DFT_PLUS_U
    &END KIND
    &KIND F
      ELEMENT F
      BASIS_SET DZVP-MOLOPT-SR-GTH-q7
      POTENTIAL GTH-PBE
      #&DFT_PLUS_U
      #  L 1 #Quantum number of angular momentum the atomic orbitals to +U. 0=s, 1=p, 2=d, 3=f
      #  U_MINUS_J [eV] 2.0 #Effective on-site Coulomb interaction parameter U(eff) = U - J
      #&END DFT_PLUS_U
    &END KIND
    &KIND O
      ELEMENT O
      BASIS_SET DZVP-MOLOPT-SR-GTH-q6
      POTENTIAL GTH-PBE
      #&DFT_PLUS_U
      #  L 1 #Quantum number of angular momentum the atomic orbitals to +U. 0=s, 1=p, 2=d, 3=f
      #  U_MINUS_J [eV] 2.0 #Effective on-site Coulomb interaction parameter U(eff) = U - J
      #&END DFT_PLUS_U
	&BS
	&ALPHA
		NEL +2
		L 1
		N 2
	&END ALPHA
	&BETA
		NEL +2
		L 1
		N 2
	&END BETA
	&END BS
    &END KIND
    &KIND Fe_1
      ELEMENT Fe
      BASIS_SET DZVP-MOLOPT-SR-GTH-q16
      POTENTIAL GTH-PBE
      &DFT_PLUS_U
        L 2 #Quantum number of angular momentum the atomic orbitals to +U. 0=s, 1=p, 2=d, 3=f
        U_MINUS_J [eV] 1.4 #Effective on-site Coulomb interaction parameter U(eff) = U - J
      &END DFT_PLUS_U
	&BS
	&ALPHA
		NEL -6 -2
		L 2 0
		N 3 4
	&END ALPHA
	&BETA
		NEL +4 -2 
		L 2 0
		N 3 4
	&END BETA
	&END BS
    &END KIND
    &KIND Fe
      ELEMENT Fe
      BASIS_SET DZVP-MOLOPT-SR-GTH-q16
      POTENTIAL GTH-PBE
      &DFT_PLUS_U
        L 2 #Quantum number of angular momentum the atomic orbitals to +U. 0=s, 1=p, 2=d, 3=f
        U_MINUS_J [eV] 1.4 #Effective on-site Coulomb interaction parameter U(eff) = U - J
      &END DFT_PLUS_U
	&BS
	&ALPHA
		NEL +4 -2
		L 2 0
		N 3 4
	&END ALPHA
	&BETA
		NEL -6 -2 
		L 2 0
		N 3 4
	&END BETA
	&END BS
    &END KIND
    &KIND O_1
      ELEMENT O
      BASIS_SET DZVP-MOLOPT-SR-GTH-q6
      POTENTIAL GTH-PBE
      #&DFT_PLUS_U
      #  L 1 #Quantum number of angular momentum the atomic orbitals to +U. 0=s, 1=p, 2=d, 3=f
      #  U_MINUS_J [eV] 2.0 #Effective on-site Coulomb interaction parameter U(eff) = U - J
      #&END DFT_PLUS_U
      MAGNETIZATION  1.00
    &END KIND
  &END SUBSYS

  &DFT
    BASIS_SET_FILE_NAME  BASIS_MOLOPT
    POTENTIAL_FILE_NAME  POTENTIAL
    WFN_RESTART_FILE_NAME Fe2O3-FGO-O2-geo540-RESTART.wfn
    CHARGE    0 #Net charge
    MULTIPLICITY    3 #Spin multiplicity
    UKS
    PLUS_U_METHOD MULLIKEN #The method used in DFT+U. Can also be Lowdin
    &QS
      EPS_DEFAULT 1.0E-12 #Set all EPS_xxx to values such that the energy will be correct up to this value
    &END QS
    &POISSON
      PERIODIC XY #Direction(s) of PBC for calculating electrostatics
      PSOLVER MT #The way to solve Poisson equation
    &END POISSON
    &XC
      &XC_FUNCTIONAL PBE
      &END XC_FUNCTIONAL
      &VDW_POTENTIAL
        POTENTIAL_TYPE PAIR_POTENTIAL
        &PAIR_POTENTIAL
          PARAMETER_FILE_NAME dftd3.dat
          TYPE DFTD3(BJ)
          REFERENCE_FUNCTIONAL PBE
          #CALCULATE_C9_TERM T #Calculate C9-related three-body term, more accurate for large system
        &END PAIR_POTENTIAL
      &END VDW_POTENTIAL
    &END XC
    &MGRID
      CUTOFF 1050
      REL_CUTOFF  80
    &END MGRID
    &SCF
      MAX_SCF 25 #Maximum number of steps of inner SCF
      EPS_SCF 5.0E-06 #Convergence threshold of density matrix of inner SCF
      SCF_GUESS RESTART #Use wavefunction from WFN_RESTART_FILE_NAME file as initial guess
#     IGNORE_CONVERGENCE_FAILURE #Continue calculation even if SCF not converged, works for version >= 2024.1
      &OT
        PRECONDITIONER FULL_KINETIC #FULL_SINGLE_INVERSE is also worth to try. FULL_ALL is better but quite expensive for large system
        MINIMIZER DIIS #CG is worth to consider in difficult cases
        LINESEARCH 2PNT #1D line search algorithm for CG. 2PNT is default. 3PNT is more expensive but may be better. GOLD is best but very expensive
        ALGORITHM STRICT #Algorithm of OT. Can be STRICT (default) or IRAC
      &END OT
      &OUTER_SCF
        MAX_SCF 20 #Maximum number of steps of outer SCF
        EPS_SCF 5.0E-06 #Convergence threshold of outer SCF
      &END OUTER_SCF
      &PRINT
        &RESTART #Note: Use "&RESTART OFF" can prevent generating .wfn file
          BACKUP_COPIES 0 #Maximum number of backup copies of wfn file. 0 means never
        &END RESTART
      &END PRINT
    &END SCF
    &PRINT
      #Uncomment following lines can print occupation for which +U is applied when PRINT_LEVEL is medium
      #&PLUS_U
      #  &EACH
      #    QS_SCF 1
      #  &END EACH
      #&END PLUS_U
    &END PRINT
  &END DFT
&END FORCE_EVAL

&MOTION
  &GEO_OPT
    TYPE MINIMIZATION #Search for minimum
    KEEP_SPACE_GROUP F #If T, then space group will be detected and preserved
    OPTIMIZER BFGS #Can also be CG (more robust for difficult cases) or LBFGS
    &BFGS
      TRUST_RADIUS 0.1 #Trust radius (maximum stepsize) in Angstrom
#     RESTART_HESSIAN T #If read initial Hessian, uncomment this line and specify the file in the next line
#     RESTART_FILE_NAME to_be_specified
    &END BFGS
    MAX_ITER 500 #Maximum number of geometry optimization
    MAX_DR 3E-3 #Maximum geometry change
    RMS_DR 1.5E-3 #RMS geometry change
    MAX_FORCE 4.5E-4 #Maximum force
    RMS_FORCE 3E-4 #RMS force
  &END GEO_OPT
  &CONSTRAINT
    &FIXED_ATOMS #Set atoms to be fixed
      COMPONENTS_TO_FIX XYZ #Which fractional components will be fixed, can be X, Y, Z, XY, XZ, YZ, XYZ
      LIST      1     2     3     4     5     6     7     8     9    10    11    12 \
          13    14    15    16    17    18    19    20    21    22    23    24 \
          25    26    27    28    29    30    31    32    33    34    35    36 \
          37    38    39    40    41    42    43    44    45    46    47    48 \
          49    50    51    52    53    54    55    56    57    58    59    60 \
          61    62    63    64    65    66    67    68    69    70    71    72 \
          73    74    75    76    77    78    79    80    81    82    83    84 \
          85    86    87    88    89    90    91    92    93    94    95    96 \
          97    98    99   100   101   102   103   104   105   106   107   108 \
         109   110   111   112   113   114   115   116   117   118   119   120 \
         121   122   123   124   125   126   127   128   129   130   131   132 \
         133   134   135   136   137   138   139   140   141   142   143   144 \
         145   147   149   152   153   155   157   160   162   164   165   167 \
         169   172   173   175   177   180   182   184   185   187   189   192 \
         193   195   197   200   202   204   205   207   209   212   213   215 \
         217   220   222   224   225   227   229   232   233   235   237   240 \
         242   244   245   247   249   252   253   255   257   260   262   264 \
         265   267   269   272   273   275   277   280   282   284   285   287 \
         289   292   293   295   297   300   302   304   305   307   309   312 \
         313   315   317   320   322   324
    &END FIXED_ATOMS
  &END CONSTRAINT
  &PRINT
    &TRAJECTORY
      FORMAT xyz
    &END TRAJECTORY
    &RESTART
      BACKUP_COPIES 0 #Maximum number of backing up restart file, 0 means never
    &END RESTART
  &END PRINT
&END MOTION
