keep balance and keep mind 

&GLOBAL
  PROJECT Co3O4-graphite-N-freq
  PRINT_LEVEL MEDIUM
  RUN_TYPE VIBRATIONAL_ANALYSIS
&END GLOBAL

&FORCE_EVAL
  METHOD Quickstep

    &END COORD
    &KIND C
      ELEMENT C
      BASIS_SET DZVP-MOLOPT-SR-GTH-q4
      POTENTIAL GTH-PBE
      #&DFT_PLUS_U
      #  L 1 #Quantum number of angular momentum the atomic orbitals to +U. 0=s, 1=p, 2=d, 3=f
      #  U_MINUS_J [eV] 2.0 #Effective on-site Coulomb interaction parameter U(eff) = U - J
      #&END DFT_PLUS_U
    &END KIND
    &KIND Co
      ELEMENT Co
      BASIS_SET DZVP-MOLOPT-SR-GTH-q17
      POTENTIAL GTH-PBE
      &DFT_PLUS_U
        L 2 #Quantum number of angular momentum the atomic orbitals to +U. 0=s, 1=p, 2=d, 3=f
        U_MINUS_J [eV] 3.0 #Effective on-site Coulomb interaction parameter U(eff) = U - J
      &END DFT_PLUS_U
	&BS
	&ALPHA
		NEL -1 -2
		L 2 0
		N 3 4
	&END ALPHA
	&BETA
		NEL -1 -2 
		L 2 0
		N 3 4
	&END BETA
	&END BS
    &END KIND
    &KIND O
      ELEMENT O
      BASIS_SET DZVP-MOLOPT-SR-GTH-q6
      POTENTIAL GTH-PBE
      #&DFT_PLUS_U
      #  L 1 #Quantum number of angular momentum the atomic orbitals to +U. 0=s, 1=p, 2=d, 3=f
      #  U_MINUS_J [eV] 2.0 #Effective on-site Coulomb interaction parameter U(eff) = U - J
      #&END DFT_PLUS_U
	&BS
	&ALPHA
		NEL +2
		L 1
		N 2
	&END ALPHA
	&BETA
		NEL +2
		L 1
		N 2
	&END BETA
	&END BS
    &END KIND
    &KIND N
      ELEMENT N
      BASIS_SET DZVP-MOLOPT-SR-GTH-q5
      POTENTIAL GTH-PBE
      #&DFT_PLUS_U
      #  L 1 #Quantum number of angular momentum the atomic orbitals to +U. 0=s, 1=p, 2=d, 3=f
      #  U_MINUS_J [eV] 2.0 #Effective on-site Coulomb interaction parameter U(eff) = U - J
      #&END DFT_PLUS_U
    &END KIND
    &KIND Co_1
      ELEMENT Co
      BASIS_SET DZVP-MOLOPT-SR-GTH-q17
      POTENTIAL GTH-PBE
      &DFT_PLUS_U
        L 2 #Quantum number of angular momentum the atomic orbitals to +U. 0=s, 1=p, 2=d, 3=f
        U_MINUS_J [eV] 3.0 #Effective on-site Coulomb interaction parameter U(eff) = U - J
      &END DFT_PLUS_U
	&BS
	&ALPHA
		NEL +3 -2
		L 2 0
		N 3 4
	&END ALPHA
	&BETA
		NEL -3 -2 
		L 2 0
		N 3 4
	&END BETA
	&END BS
    &END KIND
  &END SUBSYS

  &DFT
    BASIS_SET_FILE_NAME  BASIS_MOLOPT
    POTENTIAL_FILE_NAME  POTENTIAL
    WFN_RESTART_FILE_NAME Co3O4-graphite-N-geo-RESTART.wfn
    CHARGE    0 #Net charge
    MULTIPLICITY   34 #Spin multiplicity
    UKS
    PLUS_U_METHOD MULLIKEN #The method used in DFT+U. Can also be Lowdin
    &QS
      EPS_DEFAULT 1.0E-14 #Set all EPS_xxx to values such that the energy will be correct up to this value
    &END QS
    &POISSON
      PERIODIC XY #Direction(s) of PBC for calculating electrostatics
      PSOLVER MT #The way to solve Poisson equation
    &END POISSON
    &XC
      &XC_FUNCTIONAL PBE
      &END XC_FUNCTIONAL
      &VDW_POTENTIAL
        POTENTIAL_TYPE PAIR_POTENTIAL
        &PAIR_POTENTIAL
          PARAMETER_FILE_NAME dftd3.dat
          TYPE DFTD3(BJ)
          REFERENCE_FUNCTIONAL PBE
          #CALCULATE_C9_TERM T #Calculate C9-related three-body term, more accurate for large system
        &END PAIR_POTENTIAL
      &END VDW_POTENTIAL
    &END XC
    &MGRID
      CUTOFF 1200
      REL_CUTOFF  60
    &END MGRID
    &SCF
      MAX_SCF 25 #Maximum number of steps of inner SCF
      EPS_SCF 1.0E-07 #Convergence threshold of density matrix of inner SCF
      SCF_GUESS RESTART #Use wavefunction from WFN_RESTART_FILE_NAME file as initial guess
#     IGNORE_CONVERGENCE_FAILURE #Continue calculation even if SCF not converged, works for version >= 2024.1
      &OT
        PRECONDITIONER FULL_ALL #Usually best but expensive for large system. Cheaper: FULL_SINGLE_INVERSE and FULL_KINETIC
        MINIMIZER DIIS #CG is worth to consider in difficult cases
        LINESEARCH 2PNT #1D line search algorithm for CG. 2PNT is default. 3PNT is more expensive but may be better. GOLD is best but very expensive
        ALGORITHM STRICT #Algorithm of OT. Can be STRICT (default) or IRAC
      &END OT
      &OUTER_SCF
        MAX_SCF 20 #Maximum number of steps of outer SCF
        EPS_SCF 1.0E-07 #Convergence threshold of outer SCF
      &END OUTER_SCF
      &PRINT
        &RESTART OFF #Do not generate wfn file to suppress meaningless I/O cost
        &END RESTART
      &END PRINT
    &END SCF
    &PRINT
      #Uncomment following lines can print occupation for which +U is applied when PRINT_LEVEL is medium
      #&PLUS_U
      #  &EACH
      #    QS_SCF 1
      #  &END EACH
      #&END PLUS_U
      &MOMENTS
        PERIODIC T #Use Berry phase formula (T) or simple operator (F), the latter normally applies to isolated systems
      &END MOMENTS
    &END PRINT
  &END DFT
&END FORCE_EVAL

&MOTION
  &CONSTRAINT
    &FIXED_ATOMS #Set atoms to be fixed
      COMPONENTS_TO_FIX XYZ #Which fractional components will be fixed, can be X, Y, Z, XY, XZ, YZ, XYZ
      LIST      1     2     3     4     5     6     7     8     9    10    11    12 \
          13    14    15    16    17    18    19    20    21    22    23    24 \
          25    26    27    28    29    30    31    32    33    34    35    36 \
          37    38    39    40    41    42    43    44    45    46    47    48 \
          49    50    51    52    53    54    55    56    57    58    59    60 \
          61    62    63    64    65    66    67    68    69    70    71    72 \
          73    74    75    76    77    78    79    80    81    82    83    84 \
          85    86    87    88    89    90    91    92    93    94    95    96 \
          97    98    99   100   101   102   103   104   105   106   107   108 \
         109   110   111   112   113   114   116   117   118   119   120   122 \
         123   124   126   127   128   129   130   131   132   133   135   136 \
         137   138   139   140   142   143   144   146   147   148   149   150 \
         151   152   153   154   155   156   157   158   159   160   162   163 \
         164   165   166   167   168   169   170   171   172   173   174   175 \
         177   178   179   181   182
    &END FIXED_ATOMS
  &END CONSTRAINT
  &PRINT
    &RESTART
      BACKUP_COPIES 0 #Maximum number of backing up restart file, 0 means never
    &END RESTART
  &END PRINT
&END MOTION
&VIBRATIONAL_ANALYSIS
  DX 0.01 #Step size of finite difference. This is default (Bohr)
  NPROC_REP 1 #Number of processors to be used per replica. This is default
  TC_PRESSURE 101325 #1 atm. Pressure for calculate thermodynamic data (Pa)
  TC_TEMPERATURE 298.15 #Temperature for calculate thermodynamic data (K)
  THERMOCHEMISTRY #Print thermochemistry information (only valid for isolated systems)
  INTENSITIES T #Calculate IR/Raman intensities
  FULLY_PERIODIC T #Avoiding to project out rotation component from Hessian matrix
  &PRINT
    &MOLDEN_VIB #Output .mol (Molden file) for visualizing vibrational modes
    &END MOLDEN_VIB
  &END PRINT
&END VIBRATIONAL_ANALYSIS
