#Generated by Multiwfn (http://sobereva.com/multiwfn)
&GLOBAL
  PROJECT Co3O4
  PRINT_LEVEL MEDIUM
  RUN_TYPE CELL_OPT
&END GLOBAL

&FORCE_EVAL
  METHOD Quickstep
  &SUBSYS
    &CELL
      A     8.04586860     0.00000000     0.00000000
      B     0.00000000     8.04586860     0.00000000
      C     0.00000000     0.00000000     8.04586860
      PERIODIC XYZ #Direction(s) of applied PBC (geometry aspect)
    &END CELL
    &COORD
      Co          1.00573358    1.00573358    1.00573358
      Co          0.00000000    0.00000000    4.02293430
      O           0.90067465    0.90067465    7.14519395
      Co          1.00573358    3.01720073    3.01720073
      Co          2.01146715    2.01146715    6.03440145
      O           1.11079250    2.91214180    1.11079250
      Co          7.04013502    3.01720073    5.02866788
      Co          0.00000000    4.02293430    0.00000000
      O           7.14519395    3.12225965    3.12225965
      Co          7.04013502    1.00573358    7.04013502
      Co          6.03440145    2.01146715    2.01146715
      O           6.93507610    1.11079250    5.13372680
      Co          1.00573358    7.04013502    7.04013502
      O           0.90067465    7.14519395    0.90067465
      Co          1.00573358    5.02866788    5.02866788
      Co          2.01146715    6.03440145    2.01146715
      O           1.11079250    5.13372680    6.93507610
      Co          7.04013502    5.02866788    3.01720073
      O           7.14519395    4.92360895    4.92360895
      Co          7.04013502    7.04013502    1.00573358
      Co          6.03440145    6.03440145    6.03440145
      O           6.93507610    6.93507610    2.91214180
      Co          4.02293430    0.00000000    0.00000000
      O           7.14519395    0.90067465    0.90067465
      Co          3.01720073    1.00573358    3.01720073
      O           1.11079250    1.11079250    2.91214180
      Co          5.02866788    7.04013502    3.01720073
      O           3.12225965    7.14519395    3.12225965
      O           5.13372680    6.93507610    1.11079250
      Co          5.02866788    1.00573358    5.02866788
      Co          3.01720073    7.04013502    5.02866788
      O           4.92360895    7.14519395    4.92360895
      O           2.91214180    6.93507610    6.93507610
      Co          3.01720073    3.01720073    1.00573358
      O           2.91214180    1.11079250    1.11079250
      Co          3.01720073    5.02866788    7.04013502
      O           3.12225965    3.12225965    7.14519395
      Co          5.02866788    5.02866788    1.00573358
      Co          5.02866788    3.01720073    7.04013502
      O           4.92360895    4.92360895    7.14519395
      O           6.93507610    2.91214180    6.93507610
      O           3.12225965    0.90067465    4.92360895
      O           0.90067465    4.92360895    3.12225965
      O           2.91214180    5.13372680    5.13372680
      Co          4.02293430    4.02293430    4.02293430
      O           4.92360895    3.12225965    0.90067465
      O           5.13372680    2.91214180    5.13372680
      O           5.13372680    5.13372680    2.91214180
      O           5.13372680    1.11079250    6.93507610
      O           2.91214180    2.91214180    2.91214180
      O           3.12225965    4.92360895    0.90067465
      O           0.90067465    3.12225965    4.92360895
      O           6.93507610    5.13372680    1.11079250
      O           7.14519395    7.14519395    7.14519395
      O           4.92360895    0.90067465    3.12225965
      O           1.11079250    6.93507610    5.13372680
    &END COORD
    &KIND Co
      ELEMENT Co
      BASIS_SET DZVP-MOLOPT-SR-GTH-q17
      POTENTIAL GTH-PBE
    &END KIND
    &KIND O
      ELEMENT O
      BASIS_SET DZVP-MOLOPT-SR-GTH-q6
      POTENTIAL GTH-PBE
    &END KIND
  &END SUBSYS

  &DFT
    BASIS_SET_FILE_NAME  BASIS_MOLOPT
    POTENTIAL_FILE_NAME  POTENTIAL
#   WFN_RESTART_FILE_NAME Co3O4-RESTART.kp
    CHARGE    0 #Net charge
    MULTIPLICITY   89 #Spin multiplicity
    UKS
    &KPOINTS
      SCHEME MONKHORST-PACK  4  4  4
    &END KPOINTS
    &QS
      EPS_DEFAULT 1.0E-12 #Set all EPS_xxx to values such that the energy will be correct up to this value
#     EXTRAPOLATION USE_PREV_P #Use converged density matrix of last geometry as initial guess
    &END QS
    &POISSON
      PERIODIC XYZ #Direction(s) of PBC for calculating electrostatics
      PSOLVER PERIODIC #The way to solve Poisson equation
    &END POISSON
    &XC
      &XC_FUNCTIONAL PBE
      &END XC_FUNCTIONAL
    &END XC
    &MGRID
      CUTOFF  400
      REL_CUTOFF  55
    &END MGRID
    &SCF
      MAX_SCF 128
      EPS_SCF 1.0E-06 #Convergence threshold of density matrix of inner SCF
#     SCF_GUESS RESTART #Use wavefunction from WFN_RESTART_FILE_NAME file as initial guess
#     IGNORE_CONVERGENCE_FAILURE #Continue calculation even if SCF not converged, works for version >= 2024.1
      &DIAGONALIZATION
        ALGORITHM STANDARD #Algorithm for diagonalization
      &END DIAGONALIZATION
      &MIXING #How to mix old and new density matrices
        METHOD BROYDEN_MIXING #PULAY_MIXING is also a good alternative
        ALPHA 0.4 #Default. Mixing 40% of new density matrix with the old one
        NBROYDEN 8 #Default is 4. Number of previous steps stored for the actual mixing scheme
      &END MIXING
      &PRINT
        &RESTART #Note: Use "&RESTART OFF" can prevent generating .wfn file
          BACKUP_COPIES 0 #Maximum number of backup copies of wfn file. 0 means never
        &END RESTART
      &END PRINT
    &END SCF
  &END DFT
  &PRINT
    &STRESS_TENSOR ON #Print stress tensor
    &END STRESS_TENSOR
  &END PRINT
  STRESS_TENSOR ANALYTICAL #Compute full stress tensor analytically
&END FORCE_EVAL

&MOTION
  &CELL_OPT
    MAX_ITER 400 #Maximum number of geometry optimization
    EXTERNAL_PRESSURE  1.01325E+00 #External pressure for cell optimization (bar)
    CONSTRAINT NONE #Constraint of cell length, can be: NONE, X, Y, Z, XY, XZ, YZ
    KEEP_ANGLES F #If T, then cell angles will be kepted
    KEEP_SYMMETRY F #If T, then cell symmetry specified by &CELL / SYMMETRY will be kepted
    KEEP_SPACE_GROUP F #If T, then space group will be detected and preserved
    TYPE DIRECT_CELL_OPT #Geometry and cell are optimized at the same time. Can also be GEO_OPT, MD
    #The following thresholds of optimization convergence are the default ones
    MAX_DR 3E-3 #Maximum geometry change
    RMS_DR 1.5E-3 #RMS geometry change
    MAX_FORCE 4.5E-4 #Maximum force
    RMS_FORCE 3E-4 #RMS force
    PRESSURE_TOLERANCE 100 #Pressure tolerance (w.r.t EXTERNAL_PRESSURE)
    OPTIMIZER BFGS #Can also be CG (more robust for difficult cases) or LBFGS
    &BFGS
      TRUST_RADIUS 0.2 #Trust radius (maximum stepsize) in Angstrom
#     RESTART_HESSIAN T #If read initial Hessian, uncomment this line and specify the file in the next line
#     RESTART_FILE_NAME to_be_specified
    &END BFGS
  &END CELL_OPT
  &PRINT
    &TRAJECTORY
      FORMAT pdb
    &END TRAJECTORY
    &RESTART
      BACKUP_COPIES 0 #Maximum number of backing up restart file, 0 means never
    &END RESTART
    &RESTART_HISTORY OFF 
    &END RESTART_HISTORY
  &END PRINT
&END MOTION
